c ---- [ banner ] ------------------------------------------------------------
c
c Kissat SAT Solver
c 
c Copyright (c) 2021-2024 Armin Biere University of Freiburg
c Copyright (c) 2019-2021 Armin Biere Johannes Kepler University Linz
c 
c Version 4.0.1 43f02cf3e992cb44653b35e5cb26f93281552ae0
c gcc (Ubuntu 13.2.0-23ubuntu4) 13.2.0 -W -Wall -O3 -DNDEBUG
c Thu Sep 12 12:27:46 CEST 2024 Linux abryzen9 6.8.0-41-generic x86_64
c
c ---- [ parsing ] -----------------------------------------------------------
c
c opened and reading DIMACS file:
c
c   /data/artifact/AMulet2.0_artifact/exp4/cnf_sopb_64/64_64_U_SP_WT_KS_GenMul_sopb.cnf
c
c parsed 'p cnf 30677 135585' header
c closing input after reading 2723310 bytes (3 MB)
c finished parsing after 0.04 seconds
c
c ---- [ options ] -----------------------------------------------------------
c
c --stable=0                       (different from default '1')
c
c ---- [ solving ] -----------------------------------------------------------
c
c  seconds switched rate     size/glue tier1  binary           remaining
c         MB reductions conflicts size  tier2     irredundant
c          level restarts redundant glue  trail           variables
c
c *  0.04 10 0 0 0  0 0   0   0 0.0 0 0 0 0 0% 14620 120963 30674 100%
c (  0.07 13 0 0 0  0 0   0   0 0.0 0 0 0 0 0% 14620 120963 30674 100%
c .  0.09 13 0 0 0  0 0   0   0 0.0 0 0 0 0 0% 14616 120963 30674 100%
c c  0.19 18 0 0 0  0 0   0   0 0.0 0 0 0 0 0% 19521 111432 28230 92%
c d  0.20 18 0 0 0  0 0   0   0 0.0 0 0 0 0 0% 14633 111432 28230 92%
c =  0.26 18 0 0 0  0 0   0   0 0.0 0 0 0 0 0% 14525 111430 28205 92%
c d  0.27 18 0 0 0  0 0   0   0 0.0 0 0 0 0 0% 14473 111430 28205 92%
c f  0.42 19 0 0 0  0 0   0   0 0.0 0 0 0 0 0% 20183 102369 31454 103%
c e  0.64 25 0 0 0  0 0   0   0 0.0 0 0 0 0 0% 12693 112143 21958 72%
c )  0.64 25 0 0 0  0 0   0   0 0.0 0 0 0 0 0% 12693 112143 21958 72%
c {  0.67 26 0 0 0  0 0   0   0 0.0 0 0 2 6 0% 12693 112143 21958 72%
c -  0.94 26 323 0 1 317 64 1001 703 3.4 14 4 3 8 18% 12826 112139 21958 72%
c -  1.24 26 291 0 2 502 65 2002 1406 4.2 20 5 2 7 19% 12869 112139 21958 72%
c c  1.40 22 335 0 2 557 58 2507 1766 4.1 19 5 2 6 19% 12949 111988 21930 71%
c d  1.40 22 335 0 2 557 58 2507 1749 4.1 19 5 2 6 19% 12893 111988 21930 71%
c u  1.42 22 335 0 2 557 58 2507 1522 4.1 19 5 2 6 19% 12900 111988 21930 71%
c v  1.44 22 335 0 2 557 58 2507 1227 4.1 19 5 2 6 19% 12900 111988 21930 71%
c w  1.48 25 335 0 2 557 58 2507 1189 4.1 19 5 2 6 19% 12900 111988 21930 71%
c x  1.50 25 335 0 2 557 58 2507 1189 4.1 19 5 2 6 19% 12986 111744 21930 71%
c =  1.58 25 335 0 2 557 58 2507 1189 4.1 19 5 2 6 19% 12996 111744 21925 71%
c
c  seconds   switched   rate       size/glue tier1    binary           remaining
c         MB  reductions conflicts       size  tier2      irredundant
c           level restarts    redundant    glue   trail           variables
c
c d  1.59 25 335 0 2 557 58 2507 1189 4.1 19 5 2 6 19% 12982 111744 21924 71%
c t  1.61 25 335 0 2 557 58 2507 1189 4.1 19 5 2 6 19% 12969 111744 21924 71%
c f  1.65 25 335 0 2 557 58 2507 1189 4.1 19 5 2 6 19% 13870 109989 22661 74%
c u  1.76 25 335 0 2 557 58 2507 1158 4.1 19 5 2 6 19% 13876 109989 22661 74%
c v  1.78 25 335 0 2 557 58 2507 1129 4.1 19 5 2 6 19% 13876 109989 22661 74%
c w  1.81 25 335 0 2 557 58 2507 1104 4.1 19 5 2 6 19% 13876 109989 22661 74%
c x  1.84 25 335 0 2 557 58 2507 1104 4.1 19 5 2 6 19% 13882 109974 22661 74%
c =  1.93 25 335 0 2 557 58 2507 1104 4.1 19 5 2 6 19% 14174 109974 22515 73%
c d  1.94 25 335 0 2 557 58 2507 1103 4.1 19 5 2 6 19% 13871 109974 22515 73%
c t  1.95 25 335 0 2 557 58 2507 1103 4.1 19 5 2 6 19% 13870 109974 22515 73%
c f  1.98 25 335 0 2 557 58 2507 1103 4.1 19 5 2 6 19% 14994 108273 23085 75%
c -  2.38 25 319 0 3 742 54 3420 1713 4.1 21 5 2 8 22% 15021 108273 23085 75%
c -  2.79 25 348 0 4 953 49 5152 2890 3.9 19 5 2 7 21% 15112 108273 23085 75%
c -  3.38 25 354 0 5 1231 49 7152 4066 4.5 24 5 2 7 21% 15239 108264 23085 75%
c d  3.63 25 346 0 5 1315 49 7716 4504 4.4 25 6 2 7 21% 15238 108264 23074 75%
c u  3.67 25 346 0 5 1315 49 7716 3951 4.4 25 6 2 7 21% 15258 108264 23074 75%
c v  3.71 25 346 0 5 1315 49 7716 3438 4.4 25 6 2 7 21% 15258 108264 23074 75%
c w  3.79 25 346 0 5 1315 49 7716 3421 4.4 25 6 2 7 21% 15258 108264 23074 75%
c =  3.95 25 346 0 5 1315 49 7716 3421 4.4 25 6 2 7 21% 15744 108264 22831 74%
c d  3.96 25 346 0 5 1315 49 7716 3411 4.4 25 6 2 7 21% 15161 108264 22830 74%
c
c  seconds   switched    rate       size/glue tier1    binary           remaining
c         MB  reductions  conflicts       size  tier2      irredundant
c           level  restarts    redundant    glue   trail           variables
c
c t  3.99 25 346 0 5 1315 49 7716 3411 4.4 25 6 2 7 21% 15144 108264 22830 74%
c f  4.05 25 346 0 5 1315 49 7716 3411 4.4 25 6 2 7 21% 16091 106822 23312 76%
c u  4.17 25 346 0 5 1315 49 7716 3311 4.4 25 6 2 7 21% 16092 106822 23312 76%
c v  4.20 25 346 0 5 1315 49 7716 3227 4.4 25 6 2 7 21% 16092 106822 23312 76%
c w  4.27 25 346 0 5 1315 49 7716 3223 4.4 25 6 2 7 21% 16092 106822 23312 76%
c x  4.31 25 346 0 5 1315 49 7716 3223 4.4 25 6 2 7 21% 16096 106717 23312 76%
c =  4.46 25 346 0 5 1315 49 7716 3223 4.4 25 6 2 7 21% 16816 106717 22952 75%
c d  4.47 25 346 0 5 1315 49 7716 3210 4.4 25 6 2 7 21% 15929 106717 22952 75%
c t  4.49 25 346 0 5 1315 49 7716 3210 4.4 25 6 2 7 21% 15907 106717 22952 75%
c f  4.55 25 346 0 5 1315 49 7716 3210 4.4 25 6 2 7 21% 18202 103263 24105 79%
c -  5.18 25 339 0 6 1522 47 9390 4192 4.5 26 6 2 7 23% 18254 103257 24105 79%
c o  5.39 25 334 0 6 1614 46 10000 4717 4.5 25 6 2 7 23% 18283 103256 24105 79%
c -  5.90 25 335 0 7 1770 45 11839 5486 4.5 25 6 2 7 23% 18400 103256 24105 79%
c s  6.41 25 331 0 7 1915 45 12520 6046 4.5 30 7 2 7 24% 18435 100314 24105 79%
c e  6.56 25 331 0 7 1915 45 12520 6046 4.5 30 7 2 7 24% 17265 101144 23129 75%
c 2  6.57 25 331 0 7 1915 45 12520 6046 4.5 30 7 2 7 24% 17264 101144 23129 75%
c s  6.58 25 331 0 7 1915 45 12520 6046 4.5 30 7 2 7 24% 17274 100598 23129 75%
c e  6.59 25 331 0 7 1915 45 12520 6046 4.5 30 7 2 7 24% 17075 100729 23032 75%
c ^  6.59 25 331 0 7 1915 45 12520 6046 4.5 30 7 2 7 24% 17075 100729 23032 75%
c -  7.44 25 330 0 8 2156 45 14484 6395 4.6 32 7 2 7 25% 17121 100729 23032 75%
c
c  seconds   switched    rate        size/glue tier1    binary           remaining
c         MB  reductions   conflicts       size  tier2      irredundant
c           level  restarts     redundant    glue   trail           variables
c
c d  8.24 25 335 0 8 2394 45 15802 7575 4.8 36 7 2 7 26% 16769 100724 22797 74%
c u  8.30 25 335 0 8 2394 45 15802 6620 4.8 36 7 2 7 26% 16789 100724 22797 74%
c v  8.37 25 335 0 8 2394 45 15802 5705 4.8 36 7 2 7 26% 16789 100724 22797 74%
c w  8.64 25 335 0 8 2394 45 15802 5696 4.8 36 7 2 7 26% 16789 100724 22797 74%
c =  8.89 25 335 0 8 2394 45 15802 5696 4.8 36 7 2 7 26% 17719 100724 22332 73%
c d  8.90 25 335 0 8 2394 45 15802 5649 4.8 36 7 2 7 26% 16648 100724 22332 73%
c t  8.92 25 335 0 8 2394 45 15802 5649 4.8 36 7 2 7 26% 16536 100724 22332 73%
c f  8.98 25 335 0 8 2394 45 15802 5649 4.8 36 7 2 7 26% 16676 100353 22441 73%
c u  9.02 25 335 0 8 2394 45 15802 5416 4.8 36 7 2 7 26% 16680 100353 22441 73%
c v  9.04 25 335 0 8 2394 45 15802 5291 4.8 36 7 2 7 26% 16680 100353 22441 73%
c w  9.32 25 335 0 8 2394 45 15802 5240 4.8 36 7 2 7 26% 16680 100353 22441 73%
c =  9.65 26 335 0 8 2394 45 15802 5240 4.8 36 7 2 7 26% 20192 100353 20685 67%
c d  9.67 26 335 0 8 2394 45 15802 5177 4.8 36 7 2 7 26% 15072 100353 20685 67%
c t  9.70 26 335 0 8 2394 45 15802 5177 4.8 36 7 2 7 26% 15066 100353 20685 67%
c f  9.75 26 335 0 8 2394 45 15802 5177 4.8 36 7 2 7 26% 15071 100343 20687 67%
c - 10.27 26 345 0 9 2534 44 17312 5798 4.8 36 8 2 7 26% 15100 100343 20687 67%
c o 11.21 26 337 0 9 2772 42 20000 8139 4.6 37 8 2 7 26% 15158 100342 20687 67%
c - 11.27 26 342 0 10 2799 42 20313 7424 4.6 37 8 2 7 26% 15165 100342 20687 67%
c - 11.73 26 342 0 11 2915 39 23476 8832 4.5 36 8 2 7 25% 15287 100336 20687 67%
c s 12.03 26 342 0 11 2989 38 25031 10197 4.4 35 8 2 7 25% 15352 94493 20687 67%
c
c  seconds   switched     rate         size/glue tier1    binary          remaining
c         MB   reductions   conflicts        size  tier2      irredundant
c           level   restarts      redundant    glue   trail          variables
c
c e 12.12 26 342 0 11 2989 38 25031 10197 4.4 35 8 2 7 25% 12375 98061 19028 62%
c 2 12.12 26 342 0 11 2989 38 25031 10197 4.4 35 8 2 7 25% 12373 98061 19028 62%
c s 12.13 26 342 0 11 2989 38 25031 10197 4.4 35 8 2 7 25% 12395 97666 19028 62%
c e 12.14 26 342 0 11 2989 38 25031 10197 4.4 35 8 2 7 25% 12339 97739 18999 62%
c ^ 12.14 26 342 0 11 2989 38 25031 10197 4.4 35 8 2 7 25% 12339 97739 18999 62%
c - 12.43 26 335 0 12 3097 37 26793 9463 4.4 34 8 2 7 25% 12361 97739 18999 62%
c c 12.50 26 336 0 12 3110 37 26935 9589 4.4 34 8 2 7 25% 12445 97375 18953 62%
c d 12.51 26 336 0 12 3110 37 26935 9537 4.4 34 8 2 7 25% 12248 97375 18890 62%
c u 12.58 26 336 0 12 3110 37 26935 8221 4.4 34 8 2 7 25% 12264 97375 18890 62%
c v 12.63 26 336 0 12 3110 37 26935 7372 4.4 34 8 2 7 25% 12265 97375 18890 62%
c w 12.66 26 336 0 12 3110 37 26935 7364 4.4 34 8 2 7 25% 12265 97375 18890 62%
c x 12.74 26 336 0 12 3110 37 26935 7362 4.4 34 8 2 7 25% 12326 96223 18890 62%
c = 13.02 26 336 0 12 3110 37 26935 7362 4.4 34 8 2 7 25% 14500 96219 17803 58%
c d 13.03 26 336 0 12 3110 37 26935 7268 4.4 34 8 2 7 25% 12232 96219 17802 58%
c t 13.05 26 336 0 12 3110 37 26935 7268 4.4 34 8 2 7 25% 12187 96219 17802 58%
c f 13.14 26 336 0 12 3110 37 26935 7268 4.4 34 8 2 7 25% 12299 95853 17881 58%
c u 13.21 26 336 0 12 3110 37 26935 6935 4.4 34 8 2 7 25% 12302 95853 17881 58%
c v 13.24 26 336 0 12 3110 37 26935 6803 4.4 34 8 2 7 25% 12302 95853 17881 58%
c w 13.25 26 336 0 12 3110 37 26935 6798 4.4 34 8 2 7 25% 12302 95853 17881 58%
c = 13.42 26 336 0 12 3110 37 26935 6798 4.4 34 8 2 7 25% 12990 95853 17537 57%
c
c  seconds   switched     rate        size/glue tier1    binary          remaining
c         MB   reductions   conflicts       size  tier2      irredundant
c           level   restarts     redundant    glue   trail          variables
c
c d 13.43 26 336 0 12 3110 37 26935 6763 4.4 34 8 2 7 25% 12290 95853 17536 57%
c t 13.45 26 336 0 12 3110 37 26935 6763 4.4 34 8 2 7 25% 12277 95853 17536 57%
c f 13.47 26 336 0 12 3110 37 26935 6763 4.4 34 8 2 7 25% 12283 95830 17541 57%
c - 14.12 26 320 0 13 3354 35 30257 8595 4.3 33 8 2 7 25% 12367 95826 17541 57%
c - 14.54 26 314 0 14 3509 33 33862 10506 4.2 32 8 2 7 24% 12455 95823 17541 57%
c - 15.09 26 317 0 15 3681 32 37604 12096 4.1 31 8 2 7 24% 12562 95822 17541 57%
c o 15.54 26 308 0 15 3805 31 40001 14115 4.0 30 7 2 7 24% 12632 95821 17541 57%
c c 16.17 26 303 0 15 4015 31 41267 15251 4.0 30 8 2 7 24% 12799 94874 17379 57%
c d 16.18 26 303 0 15 4015 31 41267 14997 4.0 30 8 2 7 24% 12475 94874 17379 57%
c u 16.23 26 303 0 15 4015 31 41267 12888 4.0 30 8 2 7 24% 12491 94874 17379 57%
c v 16.27 26 303 0 15 4015 31 41267 12185 4.0 30 8 2 7 24% 12495 94874 17379 57%
c w 16.31 26 303 0 15 4015 31 41267 12185 4.0 30 8 2 7 24% 12495 94874 17379 57%
c x 16.38 26 303 0 15 4015 31 41267 12185 4.0 30 8 2 7 24% 12495 92648 17379 57%
c = 16.57 26 303 0 15 4015 31 41267 12185 4.0 30 8 2 7 24% 12501 92648 17376 57%
c d 16.58 26 303 0 15 4015 31 41267 12174 4.0 30 8 2 7 24% 12477 92648 17367 57%
c t 16.60 26 303 0 15 4015 31 41267 12174 4.0 30 8 2 7 24% 12461 92648 17367 57%
c f 16.61 26 303 0 15 4015 31 41267 12174 4.0 30 8 2 7 24% 12463 92643 17368 57%
c c 16.66 26 303 0 15 4015 31 41267 12151 4.0 30 8 2 7 24% 12500 92497 17348 57%
c d 16.67 26 303 0 15 4015 31 41267 12151 4.0 30 8 2 7 24% 12460 92497 17348 57%
c u 16.72 26 303 0 15 4015 31 41267 11774 4.0 30 8 2 7 24% 12467 92497 17348 57%
c
c  seconds   switched     rate         size/glue tier1    binary          remaining
c         MB   reductions   conflicts        size  tier2      irredundant
c           level   restarts      redundant    glue   trail          variables
c
c v 16.79 26 303 0 15 4015 31 41267 11090 4.0 30 8 2 7 24% 12470 92497 17348 57%
c w 16.87 26 303 0 15 4015 31 41267 11088 4.0 30 8 2 7 24% 12470 92497 17348 57%
c x 16.96 27 303 0 15 4015 31 41267 11087 4.0 30 8 2 7 24% 12471 88594 17348 57%
c = 17.21 27 303 0 15 4015 31 41267 11087 4.0 30 8 2 7 24% 12855 88594 17156 56%
c d 17.22 27 303 0 15 4015 31 41267 11005 4.0 30 8 2 7 24% 12452 88594 17154 56%
c t 17.24 27 303 0 15 4015 31 41267 11005 4.0 30 8 2 7 24% 12446 88594 17154 56%
c f 17.26 27 303 0 15 4015 31 41267 11005 4.0 30 8 2 7 24% 12450 88584 17156 56%
c - 17.36 27 302 0 16 4037 31 41479 9903 4.0 30 8 2 7 24% 12451 88584 17156 56%
c - 17.98 27 308 0 17 4239 30 45479 12063 3.9 29 7 2 7 24% 12523 88584 17156 56%
c - 18.92 27 315 0 18 4528 30 49602 14122 4.0 29 7 2 7 24% 12625 88582 17156 56%
c s 19.56 27 318 0 18 4735 30 52139 16311 4.0 29 7 2 7 24% 12695 83960 17156 56%
c e 19.69 27 318 0 18 4735 30 52139 16311 4.0 29 7 2 7 24% 11529 86097 16451 54%
c 2 19.69 27 318 0 18 4735 30 52139 16311 4.0 29 7 2 7 24% 11525 86097 16451 54%
c s 19.70 27 318 0 18 4735 30 52139 16311 4.0 29 7 2 7 24% 11542 85517 16451 54%
c e 19.72 27 318 0 18 4735 30 52139 16311 4.0 29 7 2 7 24% 11500 85574 16432 54%
c ^ 19.72 27 318 0 18 4735 30 52139 16311 4.0 29 7 2 7 24% 11500 85574 16432 54%
c - 19.96 27 317 0 19 4818 29 53844 14571 3.9 29 7 2 6 24% 11541 85572 16432 54%
c - 20.87 27 304 0 20 5122 28 58202 16393 3.8 28 7 2 6 24% 11622 85571 16432 54%
c c 20.99 27 305 0 20 5137 28 58893 16947 3.8 28 7 2 6 23% 11793 84787 16309 53%
c d 21.00 27 305 0 20 5137 28 58893 16683 3.8 28 7 2 6 23% 11547 84787 16309 53%
c
c  seconds   switched     rate         size/glue tier1    binary          remaining
c         MB   reductions   conflicts        size  tier2      irredundant
c           level   restarts      redundant    glue   trail          variables
c
c u 21.11 27 305 0 20 5137 28 58893 13806 3.8 28 7 2 6 23% 11573 84787 16309 53%
c v 21.18 27 305 0 20 5137 28 58893 12556 3.8 28 7 2 6 23% 11582 84787 16309 53%
c w 21.21 27 305 0 20 5137 28 58893 12532 3.8 28 7 2 6 23% 11582 84787 16309 53%
c x 21.32 27 305 0 20 5137 28 58893 12528 3.8 28 7 2 6 23% 11609 83731 16309 53%
c = 21.64 27 305 0 20 5137 28 58893 12528 3.8 28 7 2 6 23% 12895 83731 15666 51%
c d 21.65 27 305 0 20 5137 28 58893 12233 3.8 28 7 2 6 23% 11548 83731 15663 51%
c t 21.67 27 305 0 20 5137 28 58893 12233 3.8 28 7 2 6 23% 11436 83731 15663 51%
c f 21.74 27 305 0 20 5137 28 58893 12233 3.8 28 7 2 6 23% 11454 83593 15683 51%
c c 21.82 27 305 0 20 5137 28 58893 12229 3.8 28 7 2 6 23% 11461 83569 15680 51%
c d 21.83 27 305 0 20 5137 28 58893 12229 3.8 28 7 2 6 23% 11455 83569 15680 51%
c u 21.91 27 305 0 20 5137 28 58893 11457 3.8 28 7 2 6 23% 11463 83569 15680 51%
c v 21.96 27 305 0 20 5137 28 58893 11183 3.8 28 7 2 6 23% 11464 83569 15680 51%
c w 21.99 27 305 0 20 5137 28 58893 11167 3.8 28 7 2 6 23% 11464 83569 15680 51%
c x 22.12 27 305 0 20 5137 28 58893 11166 3.8 28 7 2 6 23% 11496 82130 15680 51%
c = 22.46 27 305 0 20 5137 28 58893 11166 3.8 28 7 2 6 23% 12634 82130 15111 49%
c d 22.47 27 305 0 20 5137 28 58893 10945 3.8 28 7 2 6 23% 11437 82130 15111 49%
c t 22.49 27 305 0 20 5137 28 58893 10945 3.8 28 7 2 6 23% 11333 82130 15111 49%
c f 22.53 27 305 0 20 5137 28 58893 10945 3.8 28 7 2 6 23% 11344 82035 15124 49%
c - 22.95 27 307 0 21 5283 27 62674 12914 3.7 27 7 2 6 23% 11415 82035 15124 49%
c - 23.48 27 300 0 22 5504 26 67263 15292 3.6 26 7 2 6 22% 11514 82034 15124 49%
c
c  seconds   switched     rate         size/glue tier1    binary          remaining
c         MB   reductions   conflicts        size  tier2      irredundant
c           level   restarts      redundant    glue   trail          variables
c
c o 24.09 27 293 0 22 5761 26 70051 17661 3.6 26 7 2 6 22% 11569 82033 15124 49%
c - 24.57 27 290 0 23 5938 26 71954 15403 3.7 26 7 1 6 22% 11608 82033 15124 49%
c - 25.41 27 280 0 24 6229 26 76750 16188 3.6 26 7 1 6 22% 11741 82032 15124 49%
c d 25.66 27 279 0 24 6302 25 79948 18570 3.6 25 7 1 6 22% 11510 82032 14983 49%
c u 25.74 27 279 0 24 6302 25 79948 16462 3.6 25 7 1 6 22% 11546 82032 14983 49%
c v 25.83 27 279 0 24 6302 25 79948 15392 3.6 25 7 1 6 22% 11545 82032 14983 49%
c w 25.87 27 279 0 24 6302 25 79948 15352 3.6 25 7 1 6 22% 11545 82032 14983 49%
c x 25.95 27 279 0 24 6302 25 79948 15343 3.6 25 7 1 6 22% 11560 78959 14983 49%
c d 26.04 27 279 0 24 6302 25 79948 15325 3.6 25 7 1 6 22% 11546 78959 14976 49%
c t 26.07 27 279 0 24 6302 25 79948 15325 3.6 25 7 1 6 22% 11493 78959 14976 49%
c f 26.09 27 279 0 24 6302 25 79948 15325 3.6 25 7 1 6 22% 11499 78931 14980 49%
c c 26.16 27 279 0 24 6302 25 79948 15141 3.6 25 7 1 6 22% 11569 78636 14942 49%
c d 26.17 27 279 0 24 6302 25 79948 15141 3.6 25 7 1 6 22% 11493 78636 14942 49%
c u 26.23 27 279 0 24 6302 25 79948 14663 3.6 25 7 1 6 22% 11510 78636 14942 49%
c v 26.33 27 279 0 24 6302 25 79948 12875 3.6 25 7 1 6 22% 11537 78636 14942 49%
c w 26.38 27 279 0 24 6302 25 79948 12828 3.6 25 7 1 6 22% 11537 78636 14942 49%
c x 26.47 27 279 0 24 6302 25 79948 12827 3.6 25 7 1 6 22% 11544 76922 14942 49%
c d 26.48 27 279 0 24 6302 25 79948 12821 3.6 25 7 1 6 22% 11518 76922 14929 49%
c t 26.50 27 279 0 24 6302 25 79948 12821 3.6 25 7 1 6 22% 11502 76922 14929 49%
c f 26.51 27 279 0 24 6302 25 79948 12821 3.6 25 7 1 6 22% 11503 76915 14930 49%
c
c  seconds   switched     rate         size/glue tier1    binary          remaining
c         MB   reductions   conflicts        size  tier2      irredundant
c           level   restarts      redundant    glue   trail          variables
c
c - 26.76 27 277 0 25 6407 25 81650 11980 3.6 25 7 1 6 22% 11533 76915 14930 49%
c - 27.87 27 270 0 26 6890 24 86653 13911 3.5 25 7 1 6 22% 11619 76914 14930 49%
c - 28.61 27 264 0 27 7192 24 91753 15556 3.5 25 7 1 6 22% 11728 76913 14930 49%
c s 29.61 27 259 0 27 7602 24 95790 19247 3.4 25 7 1 6 22% 11782 74195 14930 49%
c e 29.76 27 259 0 27 7602 24 95790 19247 3.4 25 7 1 6 22% 8080 82993 13036 42%
c 2 29.76 27 259 0 27 7602 24 95790 19247 3.4 25 7 1 6 22% 8070 82993 13036 42%
c s 29.79 27 259 0 27 7602 24 95790 19247 3.4 25 7 1 6 22% 8089 82129 13036 42%
c e 29.81 27 259 0 27 7602 24 95790 19247 3.4 25 7 1 6 22% 7999 82324 12991 42%
c ^ 29.81 27 259 0 27 7602 24 95790 19247 3.4 25 7 1 6 22% 7999 82324 12991 42%
c - 30.18 27 258 0 28 7753 24 96950 12683 3.4 25 7 1 5 22% 8005 82324 12991 42%
c - 31.64 27 251 0 29 8364 24 102241 14955 3.4 25 7 1 5 23% 8077 82323 12991 42%
c c 32.42 27 253 0 29 8672 24 104562 17007 3.4 25 7 1 5 23% 8199 81673 12897 42%
c d 32.43 27 253 0 29 8672 24 104562 16726 3.4 25 7 1 5 23% 8011 81673 12897 42%
c u 32.50 27 253 0 29 8672 24 104562 14953 3.4 25 7 1 5 23% 8044 81673 12897 42%
c v 32.60 27 253 0 29 8672 24 104562 12638 3.4 25 7 1 5 23% 8057 81673 12897 42%
c w 32.84 27 253 0 29 8672 24 104562 12614 3.4 25 7 1 5 23% 8057 81673 12897 42%
c x 32.95 27 253 0 29 8672 24 104562 12614 3.4 25 7 1 5 23% 8057 81591 12897 42%
c = 33.53 27 253 0 29 8672 24 104562 12614 3.4 25 7 1 5 23% 8675 81559 12586 41%
c d 33.54 27 253 0 29 8672 24 104562 12381 3.4 25 7 1 5 23% 7962 81559 12581 41%
c t 33.55 27 253 0 29 8672 24 104562 12381 3.4 25 7 1 5 23% 7898 81559 12581 41%
c
c  seconds   switched     rate          size/glue tier1    binary         remaining
c         MB   reductions   conflicts         size  tier2     irredundant
c           level   restarts       redundant    glue   trail         variables
c
c f 33.66 27 253 0 29 8672 24 104562 12381 3.4 25 7 1 5 23% 7939 81320 12601 41%
c c 33.73 27 253 0 29 8672 24 104562 12339 3.4 25 7 1 5 23% 7947 81288 12597 41%
c d 33.73 27 253 0 29 8672 24 104562 12339 3.4 25 7 1 5 23% 7939 81288 12597 41%
c u 33.79 27 253 0 29 8672 24 104562 11642 3.4 25 7 1 5 23% 7946 81288 12597 41%
c v 33.84 27 253 0 29 8672 24 104562 11109 3.4 25 7 1 5 23% 7947 81288 12597 41%
c w 34.17 27 253 0 29 8672 24 104562 10725 3.4 25 7 1 5 23% 7947 81288 12597 41%
c = 34.75 27 253 0 29 8672 24 104562 10725 3.4 25 7 1 5 23% 8117 81288 12512 41%
c d 34.76 27 253 0 29 8672 24 104562 10615 3.4 25 7 1 5 23% 7922 81288 12512 41%
c t 34.78 27 253 0 29 8672 24 104562 10615 3.4 25 7 1 5 23% 7907 81288 12512 41%
c f 34.80 27 253 0 29 8672 24 104562 10615 3.4 25 7 1 5 23% 7913 81248 12515 41%
c - 35.59 27 250 0 30 8984 25 107626 11499 3.4 25 7 1 5 23% 7930 81244 12515 41%
c o 36.21 27 247 0 30 9252 25 110090 13828 3.4 25 7 1 5 24% 7938 81242 12515 41%
c - 36.54 27 242 0 31 9376 24 113105 14116 3.4 25 7 1 5 23% 8004 81242 12515 41%
c - 38.04 27 235 0 32 10026 24 118672 16441 3.4 25 8 1 5 24% 8022 81241 12515 41%
c - 39.38 27 228 0 33 10509 24 124328 18336 3.4 26 8 1 5 24% 8059 81238 12515 41%
c - 40.66 27 220 0 34 10950 24 130072 19884 3.3 26 8 1 5 24% 8104 81236 12515 41%
c i 40.98 27 218 0 34 11058 24 131352 21059 3.3 26 8 1 5 24% 8112 81236 12514 41%
c d 41.29 27 216 0 34 11166 23 132800 22366 3.3 26 8 1 5 24% 8073 81232 12494 41%
c u 41.40 27 216 0 34 11166 23 132800 19797 3.3 26 8 1 5 24% 8104 81232 12494 41%
c v 41.55 27 216 0 34 11166 23 132800 16763 3.3 26 8 1 5 24% 8111 81232 12494 41%
c
c  seconds   switched      rate          size/glue tier1    binary         remaining
c         MB   reductions    conflicts         size  tier2     irredundant
c           level   restarts        redundant    glue   trail         variables
c
c w 41.71 27 216 0 34 11166 23 132800 16752 3.3 26 8 1 5 24% 8111 81232 12494 41%
c x 41.87 27 216 0 34 11166 23 132800 16716 3.3 26 8 1 5 24% 8161 77729 12494 41%
c = 42.54 27 216 0 34 11166 23 132800 16716 3.3 26 8 1 5 24% 8241 77679 12448 41%
c d 42.55 27 216 0 34 11166 23 132800 16660 3.3 26 8 1 5 24% 8157 77679 12448 41%
c t 42.57 27 216 0 34 11166 23 132800 16660 3.3 26 8 1 5 24% 8055 77679 12448 41%
c f 42.59 27 216 0 34 11166 23 132800 16660 3.3 26 8 1 5 24% 8057 77656 12450 41%
c u 42.73 27 216 0 34 11166 23 132800 15810 3.3 26 8 1 5 24% 8069 77656 12450 41%
c v 42.82 27 216 0 34 11166 23 132800 14989 3.3 26 8 1 5 24% 8073 77656 12450 41%
c w 43.04 27 216 0 34 11166 23 132800 14533 3.3 26 8 1 5 24% 8073 77656 12450 41%
c x 43.19 27 216 0 34 11166 23 132800 14526 3.3 26 8 1 5 24% 8099 77264 12450 41%
c = 43.83 27 216 0 34 11166 23 132800 14526 3.3 26 8 1 5 24% 8101 77264 12449 41%
c d 43.84 27 216 0 34 11166 23 132800 14526 3.3 26 8 1 5 24% 8098 77264 12449 41%
c t 43.86 27 216 0 34 11166 23 132800 14526 3.3 26 8 1 5 24% 8076 77264 12449 41%
c - 44.41 27 214 0 35 11346 23 135902 14830 3.3 26 8 1 5 24% 8110 77262 12449 41%
c - 45.66 27 210 0 36 11998 23 141818 17615 3.3 26 8 1 5 24% 8125 77261 12449 41%
c i 45.73 27 208 0 36 12042 23 142755 18461 3.3 26 8 1 5 24% 8133 77261 12448 41%
c i 46.09 27 206 0 36 12252 23 146030 21419 3.3 26 8 1 5 24% 8163 77260 12444 41%
c - 46.28 27 206 0 37 12349 23 147819 19355 3.3 26 8 1 5 24% 8168 77260 12444 41%
c - 46.97 27 198 0 38 12678 22 153901 20985 3.2 26 8 1 5 24% 8195 77260 12444 41%
c i 47.35 27 195 0 38 12882 22 157368 24203 3.2 26 8 1 5 24% 8219 77259 12443 41%
c
c  seconds   switched      rate          size/glue tier1    binary         remaining
c         MB   reductions    conflicts         size  tier2     irredundant
c           level   restarts        redundant    glue   trail         variables
c
c s 47.47 27 195 0 38 12942 22 157836 24641 3.2 26 8 1 5 24% 8227 77052 12443 41%
c e 47.59 27 195 0 38 12942 22 157836 24641 3.2 26 8 1 5 24% 4827 91025 10618 35%
c 2 47.59 27 195 0 38 12942 22 157836 24641 3.2 26 8 1 5 24% 4826 91025 10618 35%
c s 47.62 27 195 0 38 12942 22 157836 24641 3.2 26 8 1 5 24% 4836 90076 10618 35%
c e 47.64 27 195 0 38 12942 22 157836 24641 3.2 26 8 1 5 24% 4773 90239 10589 35%
c ^ 47.64 27 195 0 38 12942 22 157836 24641 3.2 26 8 1 5 24% 4773 90239 10589 35%
c - 47.96 27 192 0 39 13103 21 160065 16838 3.2 26 8 1 5 24% 4781 90238 10589 35%
c o 47.98 27 192 0 39 13109 21 160091 16862 3.2 26 8 1 5 24% 4781 90238 10589 35%
c i 48.41 27 191 0 39 13407 22 162524 19131 3.2 26 8 1 5 24% 4789 90237 10588 35%
c i 48.67 27 190 0 39 13558 21 164615 21030 3.2 26 8 1 5 24% 4795 90236 10587 35%
c u 48.74 27 190 0 39 13564 21 164778 18837 3.2 26 8 1 5 24% 4815 90222 10587 35%
c v 48.83 27 190 0 39 13564 21 164778 16410 3.2 26 8 1 5 24% 4817 90222 10587 35%
c w 48.94 27 190 0 39 13564 21 164778 16393 3.2 26 8 1 5 24% 4817 90222 10587 35%
c x 49.01 27 190 0 39 13564 21 164778 16392 3.2 26 8 1 5 24% 4817 90217 10587 35%
c = 49.51 27 190 0 39 13564 21 164778 16392 3.2 26 8 1 5 24% 4867 90210 10562 34%
c d 49.51 27 190 0 39 13564 21 164778 16378 3.2 26 8 1 5 24% 4814 90210 10562 34%
c t 49.52 27 190 0 39 13564 21 164778 16378 3.2 26 8 1 5 24% 4754 90210 10562 34%
c f 49.62 27 190 0 39 13564 21 164778 16378 3.2 26 8 1 5 24% 4846 89065 10613 35%
c u 49.67 27 190 0 39 13564 21 164778 15935 3.2 26 8 1 5 24% 4852 89065 10613 35%
c v 49.72 27 190 0 39 13564 21 164778 15475 3.2 26 8 1 5 24% 4852 89065 10613 35%
c
c  seconds   switched      rate          size/glue tier1    binary         remaining
c         MB   reductions    conflicts         size  tier2     irredundant
c           level   restarts        redundant    glue   trail         variables
c
c w 49.99 27 190 0 39 13564 21 164778 15188 3.2 26 8 1 5 24% 4852 89065 10613 35%
c t 50.48 27 190 0 39 13564 21 164778 15188 3.2 26 8 1 5 24% 4849 89065 10613 35%
c - 50.77 27 189 0 40 13732 21 166309 13924 3.2 26 8 1 5 24% 4839 89065 10613 35%
c i 51.39 27 187 0 40 14101 21 170851 18200 3.2 26 8 1 5 24% 4850 89061 10612 35%
c - 51.62 27 186 0 41 14224 21 172633 16834 3.2 26 8 1 5 24% 4851 89061 10612 35%
c i 52.10 27 185 0 41 14528 21 175195 19212 3.2 26 8 1 5 25% 4859 89058 10611 35%
c - 52.77 27 181 0 42 14888 21 179036 19246 3.2 26 8 1 5 25% 4858 89058 10611 35%
c i 53.09 27 181 0 42 15066 21 181182 21286 3.1 26 8 1 5 25% 4862 89058 10610 35%
c - 53.57 27 178 0 43 15318 21 185516 21092 3.1 26 8 1 5 25% 4867 89058 10610 35%
c - 54.89 27 175 0 44 16050 21 192073 22578 3.1 27 8 1 5 25% 4879 89058 10610 35%
c i 55.22 27 174 0 44 16218 21 193939 24267 3.1 27 9 1 5 25% 4895 89058 10608 35%
c i 55.59 27 173 0 44 16382 21 196671 26789 3.1 27 9 1 5 25% 4907 89058 10607 35%
c - 56.00 27 172 0 45 16603 21 198706 23960 3.1 27 9 1 5 25% 4897 89058 10607 35%
c c 56.30 27 171 0 45 16753 21 200560 25659 3.1 27 9 1 5 25% 4914 88998 10606 35%
c d 56.31 27 171 0 45 16753 21 200560 25659 3.1 27 9 1 5 25% 4921 88989 10606 35%
c d 56.31 27 171 0 45 16753 21 200560 25659 3.1 27 9 1 5 25% 4913 88989 10602 35%
c u 56.41 27 171 0 45 16753 21 200560 22684 3.1 27 9 1 5 25% 4952 88989 10601 35%
c v 56.52 27 171 0 45 16753 21 200560 18819 3.1 27 9 1 5 25% 4962 88989 10600 35%
c w 56.66 27 171 0 45 16753 21 200560 18723 3.1 27 9 1 5 25% 4962 88989 10600 35%
c x 56.75 27 171 0 45 16753 21 200560 18723 3.1 27 9 1 5 25% 4964 88961 10600 35%
c
c  seconds   switched      rate          size/glue tier1    binary         remaining
c         MB   reductions    conflicts         size  tier2     irredundant
c           level   restarts        redundant    glue   trail         variables
c
c d 56.76 27 171 0 45 16753 21 200560 18705 3.1 27 9 1 5 25% 4962 88961 10599 35%
c t 56.77 27 171 0 45 16753 21 200560 18705 3.1 27 9 1 5 25% 4934 88961 10599 35%
c u 56.85 27 171 0 45 16753 21 200560 17936 3.1 27 9 1 5 25% 4947 88961 10599 35%
c v 56.91 27 171 0 45 16753 21 200560 17204 3.1 27 9 1 5 25% 4948 88961 10599 35%
c w 57.05 27 171 0 45 16753 21 200560 16787 3.1 27 9 1 5 25% 4950 88961 10599 35%
c = 57.68 27 171 0 45 16753 21 200560 16787 3.1 27 9 1 5 25% 4952 88961 10598 35%
c d 57.69 27 171 0 45 16753 21 200560 16787 3.1 27 9 1 5 25% 4950 88961 10598 35%
c t 57.70 27 171 0 45 16753 21 200560 16787 3.1 27 9 1 5 25% 4946 88961 10598 35%
c i 57.71 27 171 0 45 16753 21 200560 16787 3.1 27 9 1 5 25% 4946 88961 10598 35%
c i 58.29 27 170 0 45 17099 21 203978 20028 3.1 27 9 1 5 25% 4955 88961 10597 35%
c - 58.38 27 169 0 46 17124 21 205415 17995 3.1 27 9 1 5 25% 4945 88961 10597 35%
c i 58.50 27 168 0 46 17178 21 206449 18947 3.1 27 9 1 5 25% 4949 88961 10596 35%
c i 58.63 27 168 0 46 17273 21 207249 19695 3.1 27 9 1 5 25% 4952 88961 10595 35%
c i 58.87 27 168 0 46 17396 21 208671 21016 3.1 27 9 1 5 25% 4959 88961 10594 35%
c i 58.88 27 168 0 46 17399 21 208867 21172 3.1 27 9 1 5 25% 4962 88961 10593 35%
c i 59.05 27 166 0 46 17476 20 211040 23180 3.1 27 9 1 5 25% 4970 88960 10592 35%
c i 59.05 27 166 0 46 17476 20 211073 23199 3.1 27 9 1 5 25% 4973 88960 10591 35%
c - 59.18 27 165 0 47 17534 20 212197 20204 3.1 27 9 1 5 25% 4952 88960 10591 35%
c i 59.53 27 164 0 47 17723 20 214428 22286 3.1 26 9 1 5 25% 4956 88960 10590 35%
c i 59.55 27 164 0 47 17728 20 214735 22529 3.1 26 9 1 5 25% 4962 88960 10589 35%
c
c  seconds   switched      rate          size/glue tier1    binary         remaining
c         MB   reductions    conflicts         size  tier2     irredundant
c           level   restarts        redundant    glue   trail         variables
c
c i 59.55 27 164 0 47 17730 20 215084 22773 3.1 26 9 1 5 26% 4979 88959 10588 35%
c i 59.59 27 163 0 47 17740 20 215767 23368 3.1 26 9 1 5 25% 4989 88959 10587 35%
c i 59.61 27 163 0 47 17747 20 215998 23575 3.1 26 9 1 5 25% 4993 88959 10586 35%
c i 59.81 27 162 0 47 17869 20 217912 25362 3.0 26 9 1 5 25% 5003 88959 10585 35%
c i 59.87 27 162 0 47 17897 20 218184 25613 3.0 26 9 1 5 25% 5008 88959 10584 35%
c i 59.91 27 161 0 47 17921 20 218739 26115 3.0 26 9 1 5 25% 5014 88959 10583 34%
c - 59.95 27 161 0 48 17940 20 219052 21735 3.0 26 9 1 5 25% 4979 88959 10583 34%
c i 59.98 27 160 0 48 17966 19 219649 22280 3.0 26 9 1 5 25% 4987 88959 10579 34%
c i 59.99 27 160 0 48 17967 19 220250 22773 3.0 26 9 1 5 25% 4999 88959 10578 34%
c o 60.00 27 160 0 48 17967 19 220250 22773 3.0 26 9 1 5 25% 4999 88959 10578 34%
c i 60.02 27 159 0 48 17982 19 220646 23103 3.0 26 9 1 5 25% 5013 88959 10577 34%
c i 60.02 27 159 0 48 17990 19 220957 23357 3.0 26 9 1 5 25% 5023 88959 10575 34%
c i 60.11 27 156 0 48 17998 19 223217 25390 3.0 26 9 1 5 25% 5026 88959 10574 34%
c - 60.18 27 152 0 49 18048 18 225981 22331 3.0 25 8 1 5 24% 5010 88959 10574 34%
c i 60.18 27 152 0 49 18048 18 226554 22817 3.0 25 8 1 5 24% 5016 88959 10569 34%
c i 60.20 27 151 0 49 18053 18 226860 23079 3.0 25 8 1 5 24% 5026 88959 10542 34%
c i 60.21 27 151 0 49 18053 18 227056 23235 3.0 25 8 1 5 24% 5031 88959 10527 34%
c i 60.21 27 151 0 49 18053 18 227244 23380 3.0 25 8 1 5 24% 5042 88956 10526 34%
c i 60.21 27 151 0 49 18053 18 227245 23379 3.0 25 8 1 5 24% 5042 88956 10524 34%
c i 60.21 27 151 0 49 18053 18 227251 23381 3.0 25 8 1 5 24% 5044 88956 10499 34%
c
c  seconds   switched      rate          size/glue tier1    binary         remaining
c         MB   reductions    conflicts         size  tier2     irredundant
c           level   restarts        redundant    glue   trail         variables
c
c i 60.21 27 151 0 49 18053 18 227257 23383 3.0 25 8 1 5 24% 5046 88956 10495 34%
c i 60.21 27 151 0 49 18053 18 227261 23385 3.0 25 8 1 5 24% 5047 88956 10235 33%
c } 60.21 27 151 0 49 18053 18 227264 23384 3.0 25 8 1 5 24% 5048 88955 9949 32%
c 0 60.21 27 151 0 49 18053 18 227264 23384 3.0 25 8 1 5 24% 5048 88955 9949 32%
c
c ---- [ result ] ------------------------------------------------------------
c
s UNSATISFIABLE
c
c ---- [ profiling ] ---------------------------------------------------------
c
c          42.48   70.55 %  search
c          42.48   70.55 %  focused
c          17.07   28.34 %  simplify
c          16.44   27.30 %  probe
c           6.81   11.31 %  sweep
c           6.55   10.88 %  vivify
c           1.10    1.82 %  factor
c           0.97    1.60 %  eliminate
c           0.89    1.47 %  congruence
c           0.79    1.31 %  substitute
c           0.57    0.94 %  preprocess
c           0.31    0.52 %  reduce
c           0.22    0.36 %  fastel
c           0.20    0.33 %  transitive
c           0.18    0.31 %  subsume
c           0.11    0.18 %  backbone
c           0.06    0.11 %  lucky
c           0.04    0.06 %  parse
c =============================================
c          60.21  100.00 %  total
c
c ---- [ statistics ] --------------------------------------------------------
c
c chronological:                         8282                4 %  conflicts
c conflicts:                           227264             3774.51 per second
c congruent:                             2963               10 %  variables
c decisions:                          4649252               20.46 per conflict
c eliminated:                           16774               55 %  variables
c factored:                              6503               21 %  variables
c fast_eliminated:                       9496               57 %  eliminated
c fast_strengthened:                      231                8 %  per strengthened
c fast_subsumed:                           83                0 %  per subsumed
c iterations:                              40                0 %  variables
c propagations:                     178827902          2970061    per second
c reductions:                              49             4638    interval
c reordered:                                7            32466    interval
c restarts:                             18053               13    interval
c strengthened:                          2938                0 %  checks
c substituted:                           9780               32 %  variables
c subsumed:                             19611                1 %  checks
c switched:                                 0                0    interval
c vivified:                             86565               15 %  checks
c
c ---- [ glue usage ] --------------------------------------------------------
c
c focused glue 1 used 496608 clauses 64.73% accumulated 64.73% tier1
c focused glue 2 used 124131 clauses 16.18% accumulated 80.91%
c focused glue 3 used  40596 clauses  5.29% accumulated 86.20%
c focused glue 4 used  25284 clauses  3.30% accumulated 89.50%
c focused glue 5 used  17138 clauses  2.23% accumulated 91.73% tier2
c
c ---- [ resources ] ---------------------------------------------------------
c
c maximum-resident-set-size:         28667904 bytes         27 MB
c process-time:                             1m              60.21 seconds
c
c ---- [ shutting down ] -----------------------------------------------------
c
c exit 20
